279
2066
2319
1736
148
1992
1983
247
483
781
518
831
1254
1646
174
1950
1414
2211
1991
1436
510
1530
1686
231
932
923
1627
2208
1057
488
1082
1213
981
349
2285
814
1148
2189
1909
2000
2147
1223
787
1034
2351
2327
2302
142
289
1959
